c defined variables: 55 56 57 58 59 60 61 64 65 66 67 68 69 70 71 72 75 76 77 80 81 82 83 84 85 86 87 88 89 92 93 94 95 96 97 98 99 100 101 104 105 106 107 108 109 110 111 112 113 116 117 118 119 120 121 122 123 124 125 128 129 130 131 132 133 134 135 136 137 140 141 142 143 144 145 146 147 148 149 152 153 154 155 156 157 158 159 160 161 164 165 166 167 168 169 170 171 172 173 176 177 178 179 180 181 182 183 184 185 188 189 190 191 192 193 194 195 196 197 200 201 202 203 204 205 206 207 208 209 212 213 214 215 216 217 218 219 220 221 224 225 226 227 228 229 230 231 232 233 236 237 238 239 240 241 242 243 244 245 248 249 250 251 252 253 254 255 256 257 258 259 260 261 
p cnf 1051 1467
a 17 18 19 20 21 22 23 24 25 26 27 28 29 30 31 32 33 34 35 36 37 38 39 40 41 42 43 44 45 46 47 48 49 50 51 52 0
e 62 63 73 74 78 79 90 91 102 103 114 115 126 127 138 139 150 151 162 163 174 175 186 187 198 199 210 211 222 223 234 235 246 247 55 56 57 58 59 60 61 64 65 66 67 68 69 70 71 72 75 76 77 80 81 82 83 84 85 86 87 88 89 92 93 94 95 96 97 98 99 100 101 104 105 106 107 108 109 110 111 112 113 116 117 118 119 120 121 122 123 124 125 128 129 130 131 132 133 134 135 136 137 140 141 142 143 144 145 146 147 148 149 152 153 154 155 156 157 158 159 160 161 164 165 166 167 168 169 170 171 172 173 176 177 178 179 180 181 182 183 184 185 188 189 190 191 192 193 194 195 196 197 200 201 202 203 204 205 206 207 208 209 212 213 214 215 216 217 218 219 220 221 224 225 226 227 228 229 230 231 232 233 236 237 238 239 240 241 242 243 244 245 248 249 250 251 252 253 254 255 256 257 258 259 260 261 885 886 887 888 889 890 891 892 893 894 895 896 897 898 899 900 901 902 903 904 905 906 907 908 909 910 911 912 913 914 915 916 917 918 919 920 921 922 923 924 925 926 927 928 929 930 931 932 933 934 935 936 937 938 939 940 941 942 943 944 945 946 947 948 949 950 951 952 953 954 955 956 957 958 959 960 961 962 963 964 965 966 967 968 969 970 971 972 973 974 975 976 977 978 979 980 981 982 983 984 985 986 987 988 989 990 991 992 993 994 995 996 997 998 999 1000 1001 1002 1003 1004 1005 1006 1007 1008 1009 1010 1011 1012 1013 1014 1015 1016 1017 1018 1019 1020 1021 1022 1023 1024 1025 1026 1027 1028 1029 1030 1031 1032 1033 1034 1035 1036 1037 1038 1039 1040 1041 1042 1043 1044 1045 1046 1047 1048 1049 1050 1051 0
d 1 17 18 19 20 21 22 23 24 25 26 27 28 29 30 31 32 33 34 35 36 37 38 39 40 41 42 43 44 45 46 47 48 49 50 0
d 2 17 18 19 20 21 22 23 24 25 26 27 28 29 30 31 32 33 34 35 36 37 38 39 40 41 42 43 44 45 46 47 48 49 50 0
d 3 17 18 19 20 21 22 23 24 25 26 27 28 29 30 31 32 33 34 35 36 37 38 39 40 41 42 43 44 45 46 47 48 49 50 0
d 4 17 18 19 20 21 22 23 24 25 26 27 28 29 30 31 32 33 34 35 36 37 38 39 40 41 42 43 44 45 46 47 48 49 50 0
d 5 17 18 19 20 21 22 23 24 25 26 27 28 29 30 31 32 33 34 35 36 37 38 39 40 41 42 43 44 45 46 47 48 49 50 0
d 6 17 18 19 20 21 22 23 24 25 26 27 28 29 30 31 32 33 34 35 36 37 38 39 40 41 42 43 44 45 46 47 48 49 50 0
d 7 17 18 19 20 21 22 23 24 25 26 27 28 29 30 31 32 33 34 35 36 37 38 39 40 41 42 43 44 45 46 47 48 49 50 0
d 8 17 18 19 20 21 22 23 24 25 26 27 28 29 30 31 32 33 34 35 36 37 38 39 40 41 42 43 44 45 46 47 48 49 50 0
d 9 17 18 19 20 21 22 23 24 25 26 27 28 29 30 31 32 33 34 35 36 37 38 39 40 41 42 43 44 45 46 47 48 49 50 0
d 10 17 18 19 20 21 22 23 24 25 26 27 28 29 30 31 32 33 34 35 36 37 38 39 40 41 42 43 44 45 46 47 48 49 50 0
d 11 17 18 19 20 21 22 23 24 25 26 27 28 29 30 31 32 33 34 35 36 37 38 39 40 41 42 43 44 45 46 47 48 49 50 0
d 12 17 18 19 20 21 22 23 24 25 26 27 28 29 30 31 32 33 34 35 36 37 38 39 40 41 42 43 44 45 46 47 48 49 50 0
d 13 17 18 19 20 21 22 23 24 25 26 27 28 29 30 31 32 33 34 35 36 37 38 39 40 41 42 43 44 45 46 47 48 49 50 0
d 14 17 18 19 20 21 22 23 24 25 26 27 28 29 30 31 32 33 34 35 36 37 38 39 40 41 42 43 44 45 46 47 48 49 50 0
d 15 17 18 19 20 21 22 23 24 25 26 27 28 29 30 31 32 33 34 35 36 37 38 39 40 41 42 43 44 45 46 47 48 49 50 0
d 16 17 18 19 20 21 22 23 24 25 26 27 28 29 30 31 32 33 34 35 36 37 38 39 40 41 42 43 44 45 46 47 48 49 50 0
d 53 49 50 0
d 54 51 52 0
886 -55 0
-886 55 0
887 -56 0
-887 56 0
888 -57 0
-888 57 0
889 -58 0
-889 58 0
890 -59 0
-890 59 0
891 -60 0
-891 60 0
892 -61 0
-892 61 0
893 -64 0
-893 64 0
-885 -65 0
885 65 0
894 -66 0
-894 66 0
895 -67 0
-895 67 0
896 -68 0
-896 68 0
897 -69 0
-897 69 0
-898 -70 0
898 70 0
899 -71 0
-899 71 0
900 -72 0
-900 72 0
901 -75 0
-901 75 0
902 -76 0
-902 76 0
-903 -77 0
903 77 0
904 -80 0
-904 80 0
905 -81 0
-905 81 0
906 -82 0
-906 82 0
-907 -83 0
907 83 0
908 -84 0
-908 84 0
909 -85 0
-909 85 0
910 -86 0
-910 86 0
-911 -87 0
911 87 0
912 -88 0
-912 88 0
913 -89 0
-913 89 0
914 -92 0
-914 92 0
915 -93 0
-915 93 0
916 -94 0
-916 94 0
-917 -95 0
917 95 0
918 -96 0
-918 96 0
919 -97 0
-919 97 0
920 -98 0
-920 98 0
-921 -99 0
921 99 0
922 -100 0
-922 100 0
923 -101 0
-923 101 0
924 -104 0
-924 104 0
925 -105 0
-925 105 0
926 -106 0
-926 106 0
-927 -107 0
927 107 0
928 -108 0
-928 108 0
929 -109 0
-929 109 0
930 -110 0
-930 110 0
-931 -111 0
931 111 0
932 -112 0
-932 112 0
933 -113 0
-933 113 0
934 -116 0
-934 116 0
935 -117 0
-935 117 0
936 -118 0
-936 118 0
-937 -119 0
937 119 0
938 -120 0
-938 120 0
939 -121 0
-939 121 0
940 -122 0
-940 122 0
-941 -123 0
941 123 0
942 -124 0
-942 124 0
943 -125 0
-943 125 0
944 -128 0
-944 128 0
945 -129 0
-945 129 0
946 -130 0
-946 130 0
-947 -131 0
947 131 0
948 -132 0
-948 132 0
949 -133 0
-949 133 0
950 -134 0
-950 134 0
-951 -135 0
951 135 0
952 -136 0
-952 136 0
953 -137 0
-953 137 0
954 -140 0
-954 140 0
955 -141 0
-955 141 0
956 -142 0
-956 142 0
-957 -143 0
957 143 0
958 -144 0
-958 144 0
959 -145 0
-959 145 0
960 -146 0
-960 146 0
-961 -147 0
961 147 0
962 -148 0
-962 148 0
963 -149 0
-963 149 0
964 -152 0
-964 152 0
965 -153 0
-965 153 0
966 -154 0
-966 154 0
-967 -155 0
967 155 0
968 -156 0
-968 156 0
969 -157 0
-969 157 0
970 -158 0
-970 158 0
-971 -159 0
971 159 0
972 -160 0
-972 160 0
973 -161 0
-973 161 0
974 -164 0
-974 164 0
975 -165 0
-975 165 0
976 -166 0
-976 166 0
-977 -167 0
977 167 0
978 -168 0
-978 168 0
979 -169 0
-979 169 0
980 -170 0
-980 170 0
-981 -171 0
981 171 0
982 -172 0
-982 172 0
983 -173 0
-983 173 0
984 -176 0
-984 176 0
985 -177 0
-985 177 0
986 -178 0
-986 178 0
-987 -179 0
987 179 0
988 -180 0
-988 180 0
989 -181 0
-989 181 0
990 -182 0
-990 182 0
-991 -183 0
991 183 0
992 -184 0
-992 184 0
993 -185 0
-993 185 0
994 -188 0
-994 188 0
995 -189 0
-995 189 0
996 -190 0
-996 190 0
-997 -191 0
997 191 0
998 -192 0
-998 192 0
999 -193 0
-999 193 0
1000 -194 0
-1000 194 0
-1001 -195 0
1001 195 0
1002 -196 0
-1002 196 0
1003 -197 0
-1003 197 0
1004 -200 0
-1004 200 0
1005 -201 0
-1005 201 0
1006 -202 0
-1006 202 0
-1007 -203 0
1007 203 0
1008 -204 0
-1008 204 0
1009 -205 0
-1009 205 0
1010 -206 0
-1010 206 0
-1011 -207 0
1011 207 0
1012 -208 0
-1012 208 0
1013 -209 0
-1013 209 0
1014 -212 0
-1014 212 0
1015 -213 0
-1015 213 0
1016 -214 0
-1016 214 0
-1017 -215 0
1017 215 0
1018 -216 0
-1018 216 0
1019 -217 0
-1019 217 0
1020 -218 0
-1020 218 0
-1021 -219 0
1021 219 0
1022 -220 0
-1022 220 0
1023 -221 0
-1023 221 0
1024 -224 0
-1024 224 0
1025 -225 0
-1025 225 0
1026 -226 0
-1026 226 0
-1027 -227 0
1027 227 0
1028 -228 0
-1028 228 0
1029 -229 0
-1029 229 0
1030 -230 0
-1030 230 0
-1031 -231 0
1031 231 0
1032 -232 0
-1032 232 0
1033 -233 0
-1033 233 0
1034 -236 0
-1034 236 0
1035 -237 0
-1035 237 0
1036 -238 0
-1036 238 0
-1037 -239 0
1037 239 0
1038 -240 0
-1038 240 0
1039 -241 0
-1039 241 0
1040 -242 0
-1040 242 0
-1041 -243 0
1041 243 0
1042 -244 0
-1042 244 0
1043 -245 0
-1043 245 0
1044 -248 0
-1044 248 0
1045 -249 0
-1045 249 0
1046 -250 0
-1046 250 0
1047 -251 0
-1047 251 0
1048 -252 0
-1048 252 0
1049 -253 0
-1049 253 0
-885 -254 0
885 254 0
1050 -255 0
-1050 255 0
-885 -256 0
885 256 0
1051 -257 0
-1051 257 0
-885 -258 0
885 258 0
885 -259 0
-885 259 0
885 -260 0
-885 260 0
885 -261 0
-885 261 0
-55 -51 0
-55 49 0
55 51 -49 0
-56 51 0
-56 -49 0
56 -51 49 0
-57 -55 0
-57 -56 0
57 55 56 0
-58 -52 0
-58 50 0
58 52 -50 0
-59 52 0
-59 -50 0
59 -52 50 0
-60 -58 0
-60 -59 0
60 58 59 0
-61 57 0
-61 60 0
61 -57 -60 0
-62 54 0
-62 -53 0
62 -54 53 0
-63 -54 0
-63 53 0
63 54 -53 0
-64 -62 0
-64 -63 0
64 62 63 0
-65 61 0
-65 -64 0
65 -61 64 0
-66 33 0
-66 17 0
66 -33 -17 0
-67 34 0
-67 66 0
67 -34 -66 0
-68 -34 0
-68 -66 0
68 34 66 0
-69 -67 0
-69 -68 0
69 67 68 0
70 -18 0
70 69 0
-70 18 -69 0
-71 18 0
-71 -69 0
71 -18 69 0
-72 70 0
-72 -71 0
72 -70 71 0
-73 2 0
-73 72 0
73 -2 -72 0
-74 -2 0
-74 -72 0
74 2 72 0
-75 -73 0
-75 -74 0
75 73 74 0
-76 -33 0
-76 -17 0
76 33 17 0
77 -66 0
77 -76 0
-77 66 76 0
-78 1 0
-78 77 0
78 -1 -77 0
-79 -1 0
-79 -77 0
79 1 77 0
-80 -78 0
-80 -79 0
80 78 79 0
-81 75 0
-81 80 0
81 -75 -80 0
-82 -18 0
-82 -67 0
82 18 67 0
83 -68 0
83 -82 0
-83 68 82 0
-84 35 0
-84 -83 0
84 -35 83 0
-85 -35 0
-85 83 0
85 35 -83 0
-86 -84 0
-86 -85 0
86 84 85 0
87 -19 0
87 86 0
-87 19 -86 0
-88 19 0
-88 -86 0
88 -19 86 0
-89 87 0
-89 -88 0
89 -87 88 0
-90 3 0
-90 89 0
90 -3 -89 0
-91 -3 0
-91 -89 0
91 3 89 0
-92 -90 0
-92 -91 0
92 90 91 0
-93 81 0
-93 92 0
93 -81 -92 0
-94 -19 0
-94 -84 0
94 19 84 0
95 -85 0
95 -94 0
-95 85 94 0
-96 36 0
-96 -95 0
96 -36 95 0
-97 -36 0
-97 95 0
97 36 -95 0
-98 -96 0
-98 -97 0
98 96 97 0
99 -20 0
99 98 0
-99 20 -98 0
-100 20 0
-100 -98 0
100 -20 98 0
-101 99 0
-101 -100 0
101 -99 100 0
-102 4 0
-102 101 0
102 -4 -101 0
-103 -4 0
-103 -101 0
103 4 101 0
-104 -102 0
-104 -103 0
104 102 103 0
-105 93 0
-105 104 0
105 -93 -104 0
-106 -20 0
-106 -96 0
106 20 96 0
107 -97 0
107 -106 0
-107 97 106 0
-108 37 0
-108 -107 0
108 -37 107 0
-109 -37 0
-109 107 0
109 37 -107 0
-110 -108 0
-110 -109 0
110 108 109 0
111 -21 0
111 110 0
-111 21 -110 0
-112 21 0
-112 -110 0
112 -21 110 0
-113 111 0
-113 -112 0
113 -111 112 0
-114 5 0
-114 113 0
114 -5 -113 0
-115 -5 0
-115 -113 0
115 5 113 0
-116 -114 0
-116 -115 0
116 114 115 0
-117 105 0
-117 116 0
117 -105 -116 0
-118 -21 0
-118 -108 0
118 21 108 0
119 -109 0
119 -118 0
-119 109 118 0
-120 38 0
-120 -119 0
120 -38 119 0
-121 -38 0
-121 119 0
121 38 -119 0
-122 -120 0
-122 -121 0
122 120 121 0
123 -22 0
123 122 0
-123 22 -122 0
-124 22 0
-124 -122 0
124 -22 122 0
-125 123 0
-125 -124 0
125 -123 124 0
-126 6 0
-126 125 0
126 -6 -125 0
-127 -6 0
-127 -125 0
127 6 125 0
-128 -126 0
-128 -127 0
128 126 127 0
-129 117 0
-129 128 0
129 -117 -128 0
-130 -22 0
-130 -120 0
130 22 120 0
131 -121 0
131 -130 0
-131 121 130 0
-132 39 0
-132 -131 0
132 -39 131 0
-133 -39 0
-133 131 0
133 39 -131 0
-134 -132 0
-134 -133 0
134 132 133 0
135 -23 0
135 134 0
-135 23 -134 0
-136 23 0
-136 -134 0
136 -23 134 0
-137 135 0
-137 -136 0
137 -135 136 0
-138 7 0
-138 137 0
138 -7 -137 0
-139 -7 0
-139 -137 0
139 7 137 0
-140 -138 0
-140 -139 0
140 138 139 0
-141 129 0
-141 140 0
141 -129 -140 0
-142 -23 0
-142 -132 0
142 23 132 0
143 -133 0
143 -142 0
-143 133 142 0
-144 40 0
-144 -143 0
144 -40 143 0
-145 -40 0
-145 143 0
145 40 -143 0
-146 -144 0
-146 -145 0
146 144 145 0
147 -24 0
147 146 0
-147 24 -146 0
-148 24 0
-148 -146 0
148 -24 146 0
-149 147 0
-149 -148 0
149 -147 148 0
-150 8 0
-150 149 0
150 -8 -149 0
-151 -8 0
-151 -149 0
151 8 149 0
-152 -150 0
-152 -151 0
152 150 151 0
-153 141 0
-153 152 0
153 -141 -152 0
-154 -24 0
-154 -144 0
154 24 144 0
155 -145 0
155 -154 0
-155 145 154 0
-156 41 0
-156 -155 0
156 -41 155 0
-157 -41 0
-157 155 0
157 41 -155 0
-158 -156 0
-158 -157 0
158 156 157 0
159 -25 0
159 158 0
-159 25 -158 0
-160 25 0
-160 -158 0
160 -25 158 0
-161 159 0
-161 -160 0
161 -159 160 0
-162 9 0
-162 161 0
162 -9 -161 0
-163 -9 0
-163 -161 0
163 9 161 0
-164 -162 0
-164 -163 0
164 162 163 0
-165 153 0
-165 164 0
165 -153 -164 0
-166 -25 0
-166 -156 0
166 25 156 0
167 -157 0
167 -166 0
-167 157 166 0
-168 42 0
-168 -167 0
168 -42 167 0
-169 -42 0
-169 167 0
169 42 -167 0
-170 -168 0
-170 -169 0
170 168 169 0
171 -26 0
171 170 0
-171 26 -170 0
-172 26 0
-172 -170 0
172 -26 170 0
-173 171 0
-173 -172 0
173 -171 172 0
-174 10 0
-174 173 0
174 -10 -173 0
-175 -10 0
-175 -173 0
175 10 173 0
-176 -174 0
-176 -175 0
176 174 175 0
-177 165 0
-177 176 0
177 -165 -176 0
-178 -26 0
-178 -168 0
178 26 168 0
179 -169 0
179 -178 0
-179 169 178 0
-180 43 0
-180 -179 0
180 -43 179 0
-181 -43 0
-181 179 0
181 43 -179 0
-182 -180 0
-182 -181 0
182 180 181 0
183 -27 0
183 182 0
-183 27 -182 0
-184 27 0
-184 -182 0
184 -27 182 0
-185 183 0
-185 -184 0
185 -183 184 0
-186 11 0
-186 185 0
186 -11 -185 0
-187 -11 0
-187 -185 0
187 11 185 0
-188 -186 0
-188 -187 0
188 186 187 0
-189 177 0
-189 188 0
189 -177 -188 0
-190 -27 0
-190 -180 0
190 27 180 0
191 -181 0
191 -190 0
-191 181 190 0
-192 44 0
-192 -191 0
192 -44 191 0
-193 -44 0
-193 191 0
193 44 -191 0
-194 -192 0
-194 -193 0
194 192 193 0
195 -28 0
195 194 0
-195 28 -194 0
-196 28 0
-196 -194 0
196 -28 194 0
-197 195 0
-197 -196 0
197 -195 196 0
-198 12 0
-198 197 0
198 -12 -197 0
-199 -12 0
-199 -197 0
199 12 197 0
-200 -198 0
-200 -199 0
200 198 199 0
-201 189 0
-201 200 0
201 -189 -200 0
-202 -28 0
-202 -192 0
202 28 192 0
203 -193 0
203 -202 0
-203 193 202 0
-204 45 0
-204 -203 0
204 -45 203 0
-205 -45 0
-205 203 0
205 45 -203 0
-206 -204 0
-206 -205 0
206 204 205 0
207 -29 0
207 206 0
-207 29 -206 0
-208 29 0
-208 -206 0
208 -29 206 0
-209 207 0
-209 -208 0
209 -207 208 0
-210 13 0
-210 209 0
210 -13 -209 0
-211 -13 0
-211 -209 0
211 13 209 0
-212 -210 0
-212 -211 0
212 210 211 0
-213 201 0
-213 212 0
213 -201 -212 0
-214 -29 0
-214 -204 0
214 29 204 0
215 -205 0
215 -214 0
-215 205 214 0
-216 46 0
-216 -215 0
216 -46 215 0
-217 -46 0
-217 215 0
217 46 -215 0
-218 -216 0
-218 -217 0
218 216 217 0
219 -30 0
219 218 0
-219 30 -218 0
-220 30 0
-220 -218 0
220 -30 218 0
-221 219 0
-221 -220 0
221 -219 220 0
-222 14 0
-222 221 0
222 -14 -221 0
-223 -14 0
-223 -221 0
223 14 221 0
-224 -222 0
-224 -223 0
224 222 223 0
-225 213 0
-225 224 0
225 -213 -224 0
-226 -30 0
-226 -216 0
226 30 216 0
227 -217 0
227 -226 0
-227 217 226 0
-228 47 0
-228 -227 0
228 -47 227 0
-229 -47 0
-229 227 0
229 47 -227 0
-230 -228 0
-230 -229 0
230 228 229 0
231 -31 0
231 230 0
-231 31 -230 0
-232 31 0
-232 -230 0
232 -31 230 0
-233 231 0
-233 -232 0
233 -231 232 0
-234 15 0
-234 233 0
234 -15 -233 0
-235 -15 0
-235 -233 0
235 15 233 0
-236 -234 0
-236 -235 0
236 234 235 0
-237 225 0
-237 236 0
237 -225 -236 0
-238 -31 0
-238 -228 0
238 31 228 0
239 -229 0
239 -238 0
-239 229 238 0
-240 -48 0
-240 239 0
240 48 -239 0
-241 48 0
-241 -239 0
241 -48 239 0
-242 -240 0
-242 -241 0
242 240 241 0
243 -32 0
243 242 0
-243 32 -242 0
-244 32 0
-244 -242 0
244 -32 242 0
-245 243 0
-245 -244 0
245 -243 244 0
-246 16 0
-246 245 0
246 -16 -245 0
-247 -16 0
-247 -245 0
247 16 245 0
-248 -246 0
-248 -247 0
248 246 247 0
-249 237 0
-249 248 0
249 -237 -248 0
-250 -52 0
-250 -249 0
250 52 249 0
-251 52 0
-251 249 0
251 -52 -249 0
-252 -250 0
-252 -251 0
252 250 251 0
-253 51 0
-253 252 0
253 -51 -252 0
-254 253 0
-254 63 0
254 -253 -63 0
-255 50 0
-255 49 0
255 -50 -49 0
-256 53 0
-256 255 0
256 -53 -255 0
-257 -50 0
-257 -49 0
257 50 49 0
-258 -53 0
-258 257 0
258 53 -257 0
-259 -256 0
-259 -258 0
259 256 258 0
-260 -254 0
-260 259 0
260 254 -259 0
-261 -65 0
-261 260 0
261 65 -260 0
261 0
885 0
49 -886 0
-51 -886 0
-49 51 886 0
-49 -887 0
51 -887 0
49 -51 887 0
-55 -888 0
-56 -888 0
55 56 888 0
50 -889 0
-52 -889 0
-50 52 889 0
-50 -890 0
52 -890 0
50 -52 890 0
-58 -891 0
-59 -891 0
58 59 891 0
57 -892 0
60 -892 0
-57 -60 892 0
-62 -893 0
-63 -893 0
62 63 893 0
17 -894 0
33 -894 0
-17 -33 894 0
34 -895 0
66 -895 0
-34 -66 895 0
-34 -896 0
-66 -896 0
34 66 896 0
-67 -897 0
-68 -897 0
67 68 897 0
-18 -898 0
69 -898 0
18 -69 898 0
18 -899 0
-69 -899 0
-18 69 899 0
70 -900 0
-71 -900 0
-70 71 900 0
-73 -901 0
-74 -901 0
73 74 901 0
-17 -902 0
-33 -902 0
17 33 902 0
-66 -903 0
-76 -903 0
66 76 903 0
-78 -904 0
-79 -904 0
78 79 904 0
75 -905 0
80 -905 0
-75 -80 905 0
-18 -906 0
-67 -906 0
18 67 906 0
-68 -907 0
-82 -907 0
68 82 907 0
35 -908 0
-83 -908 0
-35 83 908 0
-35 -909 0
83 -909 0
35 -83 909 0
-84 -910 0
-85 -910 0
84 85 910 0
-19 -911 0
86 -911 0
19 -86 911 0
19 -912 0
-86 -912 0
-19 86 912 0
87 -913 0
-88 -913 0
-87 88 913 0
-90 -914 0
-91 -914 0
90 91 914 0
81 -915 0
92 -915 0
-81 -92 915 0
-19 -916 0
-84 -916 0
19 84 916 0
-85 -917 0
-94 -917 0
85 94 917 0
36 -918 0
-95 -918 0
-36 95 918 0
-36 -919 0
95 -919 0
36 -95 919 0
-96 -920 0
-97 -920 0
96 97 920 0
-20 -921 0
98 -921 0
20 -98 921 0
20 -922 0
-98 -922 0
-20 98 922 0
99 -923 0
-100 -923 0
-99 100 923 0
-102 -924 0
-103 -924 0
102 103 924 0
93 -925 0
104 -925 0
-93 -104 925 0
-20 -926 0
-96 -926 0
20 96 926 0
-97 -927 0
-106 -927 0
97 106 927 0
37 -928 0
-107 -928 0
-37 107 928 0
-37 -929 0
107 -929 0
37 -107 929 0
-108 -930 0
-109 -930 0
108 109 930 0
-21 -931 0
110 -931 0
21 -110 931 0
21 -932 0
-110 -932 0
-21 110 932 0
111 -933 0
-112 -933 0
-111 112 933 0
-114 -934 0
-115 -934 0
114 115 934 0
105 -935 0
116 -935 0
-105 -116 935 0
-21 -936 0
-108 -936 0
21 108 936 0
-109 -937 0
-118 -937 0
109 118 937 0
38 -938 0
-119 -938 0
-38 119 938 0
-38 -939 0
119 -939 0
38 -119 939 0
-120 -940 0
-121 -940 0
120 121 940 0
-22 -941 0
122 -941 0
22 -122 941 0
22 -942 0
-122 -942 0
-22 122 942 0
123 -943 0
-124 -943 0
-123 124 943 0
-126 -944 0
-127 -944 0
126 127 944 0
117 -945 0
128 -945 0
-117 -128 945 0
-22 -946 0
-120 -946 0
22 120 946 0
-121 -947 0
-130 -947 0
121 130 947 0
39 -948 0
-131 -948 0
-39 131 948 0
-39 -949 0
131 -949 0
39 -131 949 0
-132 -950 0
-133 -950 0
132 133 950 0
-23 -951 0
134 -951 0
23 -134 951 0
23 -952 0
-134 -952 0
-23 134 952 0
135 -953 0
-136 -953 0
-135 136 953 0
-138 -954 0
-139 -954 0
138 139 954 0
129 -955 0
140 -955 0
-129 -140 955 0
-23 -956 0
-132 -956 0
23 132 956 0
-133 -957 0
-142 -957 0
133 142 957 0
40 -958 0
-143 -958 0
-40 143 958 0
-40 -959 0
143 -959 0
40 -143 959 0
-144 -960 0
-145 -960 0
144 145 960 0
-24 -961 0
146 -961 0
24 -146 961 0
24 -962 0
-146 -962 0
-24 146 962 0
147 -963 0
-148 -963 0
-147 148 963 0
-150 -964 0
-151 -964 0
150 151 964 0
141 -965 0
152 -965 0
-141 -152 965 0
-24 -966 0
-144 -966 0
24 144 966 0
-145 -967 0
-154 -967 0
145 154 967 0
41 -968 0
-155 -968 0
-41 155 968 0
-41 -969 0
155 -969 0
41 -155 969 0
-156 -970 0
-157 -970 0
156 157 970 0
-25 -971 0
158 -971 0
25 -158 971 0
25 -972 0
-158 -972 0
-25 158 972 0
159 -973 0
-160 -973 0
-159 160 973 0
-162 -974 0
-163 -974 0
162 163 974 0
153 -975 0
164 -975 0
-153 -164 975 0
-25 -976 0
-156 -976 0
25 156 976 0
-157 -977 0
-166 -977 0
157 166 977 0
42 -978 0
-167 -978 0
-42 167 978 0
-42 -979 0
167 -979 0
42 -167 979 0
-168 -980 0
-169 -980 0
168 169 980 0
-26 -981 0
170 -981 0
26 -170 981 0
26 -982 0
-170 -982 0
-26 170 982 0
171 -983 0
-172 -983 0
-171 172 983 0
-174 -984 0
-175 -984 0
174 175 984 0
165 -985 0
176 -985 0
-165 -176 985 0
-26 -986 0
-168 -986 0
26 168 986 0
-169 -987 0
-178 -987 0
169 178 987 0
43 -988 0
-179 -988 0
-43 179 988 0
-43 -989 0
179 -989 0
43 -179 989 0
-180 -990 0
-181 -990 0
180 181 990 0
-27 -991 0
182 -991 0
27 -182 991 0
27 -992 0
-182 -992 0
-27 182 992 0
183 -993 0
-184 -993 0
-183 184 993 0
-186 -994 0
-187 -994 0
186 187 994 0
177 -995 0
188 -995 0
-177 -188 995 0
-27 -996 0
-180 -996 0
27 180 996 0
-181 -997 0
-190 -997 0
181 190 997 0
44 -998 0
-191 -998 0
-44 191 998 0
-44 -999 0
191 -999 0
44 -191 999 0
-192 -1000 0
-193 -1000 0
192 193 1000 0
-28 -1001 0
194 -1001 0
28 -194 1001 0
28 -1002 0
-194 -1002 0
-28 194 1002 0
195 -1003 0
-196 -1003 0
-195 196 1003 0
-198 -1004 0
-199 -1004 0
198 199 1004 0
189 -1005 0
200 -1005 0
-189 -200 1005 0
-28 -1006 0
-192 -1006 0
28 192 1006 0
-193 -1007 0
-202 -1007 0
193 202 1007 0
45 -1008 0
-203 -1008 0
-45 203 1008 0
-45 -1009 0
203 -1009 0
45 -203 1009 0
-204 -1010 0
-205 -1010 0
204 205 1010 0
-29 -1011 0
206 -1011 0
29 -206 1011 0
29 -1012 0
-206 -1012 0
-29 206 1012 0
207 -1013 0
-208 -1013 0
-207 208 1013 0
-210 -1014 0
-211 -1014 0
210 211 1014 0
201 -1015 0
212 -1015 0
-201 -212 1015 0
-29 -1016 0
-204 -1016 0
29 204 1016 0
-205 -1017 0
-214 -1017 0
205 214 1017 0
46 -1018 0
-215 -1018 0
-46 215 1018 0
-46 -1019 0
215 -1019 0
46 -215 1019 0
-216 -1020 0
-217 -1020 0
216 217 1020 0
-30 -1021 0
218 -1021 0
30 -218 1021 0
30 -1022 0
-218 -1022 0
-30 218 1022 0
219 -1023 0
-220 -1023 0
-219 220 1023 0
-222 -1024 0
-223 -1024 0
222 223 1024 0
213 -1025 0
224 -1025 0
-213 -224 1025 0
-30 -1026 0
-216 -1026 0
30 216 1026 0
-217 -1027 0
-226 -1027 0
217 226 1027 0
47 -1028 0
-227 -1028 0
-47 227 1028 0
-47 -1029 0
227 -1029 0
47 -227 1029 0
-228 -1030 0
-229 -1030 0
228 229 1030 0
-31 -1031 0
230 -1031 0
31 -230 1031 0
31 -1032 0
-230 -1032 0
-31 230 1032 0
231 -1033 0
-232 -1033 0
-231 232 1033 0
-234 -1034 0
-235 -1034 0
234 235 1034 0
225 -1035 0
236 -1035 0
-225 -236 1035 0
-31 -1036 0
-228 -1036 0
31 228 1036 0
-229 -1037 0
-238 -1037 0
229 238 1037 0
-48 -1038 0
239 -1038 0
48 -239 1038 0
48 -1039 0
-239 -1039 0
-48 239 1039 0
-240 -1040 0
-241 -1040 0
240 241 1040 0
-32 -1041 0
242 -1041 0
32 -242 1041 0
32 -1042 0
-242 -1042 0
-32 242 1042 0
243 -1043 0
-244 -1043 0
-243 244 1043 0
-246 -1044 0
-247 -1044 0
246 247 1044 0
237 -1045 0
248 -1045 0
-237 -248 1045 0
-52 -1046 0
-249 -1046 0
52 249 1046 0
52 -1047 0
249 -1047 0
-52 -249 1047 0
-250 -1048 0
-251 -1048 0
250 251 1048 0
51 -1049 0
252 -1049 0
-51 -252 1049 0
49 -1050 0
50 -1050 0
-49 -50 1050 0
-49 -1051 0
-50 -1051 0
49 50 1051 0
